% ----DATA VARIABLES----

t=7;%number of attributes
k=5;%max length of the support set
n=15;%number of positive instances
m=15;%number of negative instances
c=3;%number of atMostOne Constraints

% ----OMEGAS----

omegap= [| 0, 1, 1, 0, 0, 1, 1|
 0, 1, 0, 1, 1, 0, 1|
 0, 1, 1, 0, 0, 0, 0|
 1, 0, 0, 1, 0, 1, 1|
 1, 1, 0, 1, 0, 1, 0|
 1, 0, 1, 0, 1, 1, 0|
 1, 1, 0, 0, 1, 1, 1|
 0, 1, 1, 1, 1, 1, 1|
 0, 0, 1, 1, 1, 0, 1|
 1, 1, 0, 0, 1, 1, 1|
 0, 1, 1, 0, 1, 0, 1|
 1, 0, 1, 1, 1, 0, 0|
 0, 1, 1, 1, 0, 1, 0|
 1, 1, 0, 1, 1, 1, 1|
 0, 0, 1, 0, 0, 1, 1|];

omegan= [| 0, 1, 0, 0, 0, 0, 1|
 0, 1, 0, 0, 1, 0, 0|
 1, 1, 0, 0, 0, 0, 1|
 0, 1, 0, 0, 0, 0, 0|
 0, 1, 0, 0, 0, 1, 1|
 1, 0, 0, 0, 0, 0, 1|
 0, 0, 1, 1, 1, 0, 0|
 1, 0, 0, 1, 0, 0, 1|
 1, 1, 1, 1, 1, 1, 0|
 1, 0, 1, 0, 1, 1, 1|
 0, 1, 0, 1, 0, 0, 1|
 0, 1, 0, 1, 0, 1, 0|
 1, 1, 0, 0, 1, 1, 0|
 1, 0, 1, 1, 0, 1, 1|
 0, 1, 0, 1, 0, 1, 1|];

% ----CONSTRAINS----

atMostOne=[{1}, {5}, {4, 2}];